100
    1   155   155
    2   256   256
    3   396   396
    4   392   392
    5   346   346
    6   386   386
    7   427   427
    8   282   282
    9     8     8
   10    67    67
   11   165   165
   12    91    91
   13   481   481
   14    19    19
   15    95    95
   16   165   165
   17   393   393
   18   112   112
   19   322   322
   20   192   192
   21   495   495
   22   241   241
   23   179   179
   24     9     9
   25    96    96
   26   141   141
   27   256   256
   28   500   500
   29   228   228
   30   341   341
   31    28    28
   32   394   394
   33   145   145
   34    24    24
   35   188   188
   36   484   484
   37   461   461
   38   232   232
   39   390   390
   40   339   339
   41   277   277
   42   139   139
   43    11    11
   44   485   485
   45   156   156
   46   142   142
   47    14    14
   48    58    58
   49   456   456
   50   335   335
   51   136   136
   52   152   152
   53   478   478
   54   290   290
   55   295   295
   56   405   405
   57   305   305
   58   136   136
   59    87    87
   60   470   470
   61    33    33
   62   435   435
   63     7     7
   64   178   178
   65   207   207
   66   454   454
   67   289   289
   68   345   345
   69   300   300
   70   457   457
   71   237   237
   72   311   311
   73   212   212
   74   415   415
   75   280   280
   76   201   201
   77   156   156
   78   160   160
   79   106   106
   80   205   205
   81   151   151
   82    78    78
   83   277   277
   84   379   379
   85   190   190
   86   371   371
   87   273   273
   88    89    89
   89   239   239
   90   320   320
   91    58    58
   92   461   461
   93   109   109
   94    66    66
   95    29    29
   96   106   106
   97   119   119
   98   178   178
   99   252   252
  100   151   151
19693
